W=3;
H=2;

MAX_TIME=9;
MAX_TRACKS=3;

TARGET=(2,3);

TRAINS=[(1,3,LEFT)];
DECOYS=[];

INIT_POS=[
(1,3,STRAIGHT_RL),
(2,2,ESWITCH_R_L_T),
(2,3,STRAIGHT_RL),
];
TUNNEL_PAIRS=[];

GATES=[];
ACTIVATIONS=[];

DSWITCHES=[];
STATIONS=[];

SEMAPHORE_SUPPLY=0;
